# Solution for model GasLib-40
# Objective value = 1.0352723924682108e+01
loadshed[innode_1] 0
loadshed[innode_2] 0
loadshed[innode_3] 0
loadshed[innode_4] 0
loadshed[innode_5] 0
loadshed[innode_6] 0
loadshed[innode_7] 0
loadshed[innode_8] 0
loadshed[source_1] -2.6844718368569409e-01
loadshed[source_2] -9.3327054012545929e-02
loadshed[source_3] 4.2726038947296119e-01
loadshed[sink_1] 0
loadshed[sink_2] 0
loadshed[sink_3] 0
loadshed[sink_4] 0
loadshed[sink_5] 0
loadshed[sink_6] 0
loadshed[sink_7] 0
loadshed[sink_8] 0
loadshed[sink_9] 0
loadshed[sink_10] 0
loadshed[sink_11] 0
loadshed[sink_12] 6.3303280049011612e-01
loadshed[sink_13] 0
loadshed[sink_14] 0
loadshed[sink_15] 0
loadshed[sink_16] 0
loadshed[sink_17] 0
loadshed[sink_18] 0
loadshed[sink_19] 0
loadshed[sink_20] 0
loadshed[sink_21] 0
loadshed[sink_22] 0
loadshed[sink_23] 0
loadshed[sink_24] 0
loadshed[sink_25] 0
loadshed[sink_26] 0
loadshed[sink_27] 0
loadshed[sink_28] 0
loadshed[sink_29] 0
flow[source_1,sink_3] 2.0052916761531128e+02
flow[innode_1,sink_16] 1.6354166666666970e+01
flow[innode_6,sink_13] 2.3934602544124139e+01
flow[sink_13,sink_14] 7.5804358774574716e+00
flow[sink_14,sink_10] -8.7737307892091962e+00
flow[sink_25,sink_26] 171.718379659844
flow[sink_26,sink_9] 1.2197667928766654e+02
flow[sink_9,sink_18] 1.0562251262099987e+02
flow[sink_26,sink_4] 3.3387533705510805e+01
flow[sink_4,sink_20] -1.7207831691928618e+01
flow[sink_18,sink_6] 89.2683459543332
flow[sink_25,innode_8] -1.6782083428197495e+02
flow[sink_6,sink_7] 4.0205845954332290e+01
flow[sink_6,sink_22] 3.2708333333333641e+01
flow[sink_7,sink_24] 38.7097760753179
flow[sink_22,sink_1] 1.6354166666666970e+01
flow[sink_24,sink_21] 2.2355609408651226e+01
flow[sink_21,sink_12] 6.00144274198456
flow[sink_7,sink_5] -1.4858096787651846e+01
flow[sink_5,sink_17] -3.1212263454318418e+01
flow[sink_17,sink_4] -3.4241198730772680e+01
flow[sink_17,sink_8] -1.3325231390212195e+01
flow[sink_3,sink_23] 16.3541666666697
flow[sink_8,sink_20] -2.9679398056878881e+01
flow[sink_25,sink_20] 6.3241396415474156e+01
flow[sink_25,sink_15] -1.0742771100413495e+02
flow[sink_15,sink_29] -6.8297342305317216e+01
flow[sink_29,sink_28] 1.6354166666667879e+01
flow[sink_29,sink_2] 71.8387020321511
flow[sink_2,sink_15] 5.5484535365484362e+01
flow[sink_29,innode_7] -1.7284437767080283e+02
flow[innode_4,sink_19] 9.0544564122555812e+01
flow[sink_19,innode_3] 5.7836230789209367e+01
flow[innode_4,innode_5] 0
flow[sink_27,innode_5] 0
flow[sink_27,sink_19] -1.6354166666679703e+01
flow[sink_10,sink_11] 3.2708333333333641e+01
flow[sink_10,innode_2] 0
flow[sink_10,innode_3] -5.7836230789209367e+01
flow[innode_6,sink_25] -2.3934602544124139e+01
flow[sink_11,innode_1] 1.6354166666666970e+01
flow[sink_19,innode_2] 0
flow[source_3,innode_4] 9.0544564122555812e+01
flow[source_2,innode_7] 1.7284437767080283e+02
flow[sink_3,innode_8] 1.6782083428197495e+02
pressure[innode_1] 7.3986081298791476e+01
pressure[innode_2] 7.4137782606395021e+01
pressure[innode_3] 7.7216987214690917e+01
pressure[innode_4] 81.01325
pressure[innode_5] 7.6993929001387443e+01
pressure[innode_6] 7.3868310759359588e+01
pressure[innode_7] 81.01325
pressure[innode_8] 8.0342957597580664e+01
pressure[source_1] 81.01325
pressure[source_2] 81.01325
pressure[source_3] 81.01325
pressure[sink_1] 4.6167121505999319e+01
pressure[sink_2] 7.4570584617010553e+01
pressure[sink_3] 8.0342957597580664e+01
pressure[sink_4] 5.7529308678415333e+01
pressure[sink_5] 5.3895634951161419e+01
pressure[sink_6] 4.8268199116386690e+01
pressure[sink_7] 4.7716268687665526e+01
pressure[sink_8] 5.6723518568240493e+01
pressure[sink_9] 5.4473667056018627e+01
pressure[sink_10] 7.4137782606395021e+01
pressure[sink_11] 7.3986081298791476e+01
pressure[sink_12] 1.0132500000000007e+00
pressure[sink_13] 7.3736363295377487e+01
pressure[sink_14] 7.3722797459664420e+01
pressure[sink_15] 7.4389439837636871e+01
pressure[sink_16] 72.9644314639738
pressure[sink_17] 5.6220722969787907e+01
pressure[sink_18] 5.0651929740162117e+01
pressure[sink_19] 7.7345058998530945e+01
pressure[sink_20] 5.8791755223385728e+01
pressure[sink_21] 3.1488917878388
pressure[sink_22] 4.7230890648354332e+01
pressure[sink_23] 8.0178239585920878e+01
pressure[sink_24] 3.3964593912012928e+00
pressure[sink_25] 7.3868310759359588e+01
pressure[sink_26] 6.1774286124528743e+01
pressure[sink_27] 7.6993929001387443e+01
pressure[sink_28] 7.6095057740760438e+01
pressure[sink_29] 7.6390340014377614e+01
interdiction[source_1,sink_3] 0
interdiction[innode_1,sink_16] 0
interdiction[innode_6,sink_13] 0
interdiction[sink_13,sink_14] 0
interdiction[sink_14,sink_10] 0
interdiction[sink_25,sink_26] 0
interdiction[sink_26,sink_9] 0
interdiction[sink_9,sink_18] 0
interdiction[sink_26,sink_4] 0
interdiction[sink_4,sink_20] 0
interdiction[sink_18,sink_6] 0
interdiction[sink_25,innode_8] 0
interdiction[sink_6,sink_7] 0
interdiction[sink_6,sink_22] 0
interdiction[sink_7,sink_24] 0
interdiction[sink_22,sink_1] 0
interdiction[sink_24,sink_21] 0
interdiction[sink_21,sink_12] 0
interdiction[sink_7,sink_5] 0
interdiction[sink_5,sink_17] 0
interdiction[sink_17,sink_4] 0
interdiction[sink_17,sink_8] 0
interdiction[sink_3,sink_23] 0
interdiction[sink_8,sink_20] 0
interdiction[sink_25,sink_20] 0
interdiction[sink_25,sink_15] 0
interdiction[sink_15,sink_29] 0
interdiction[sink_29,sink_28] 0
interdiction[sink_29,sink_2] 0
interdiction[sink_2,sink_15] 0
interdiction[sink_29,innode_7] 0
interdiction[innode_4,sink_19] 0
interdiction[sink_19,innode_3] 0
interdiction[innode_4,innode_5] 1
interdiction[sink_27,innode_5] 0
interdiction[sink_27,sink_19] 0
interdiction[sink_10,sink_11] 0
interdiction[sink_10,innode_2] 0
interdiction[sink_10,innode_3] 0
interdiction[innode_6,sink_25] 0
interdiction[sink_11,innode_1] 0
interdiction[sink_19,innode_2] 1
interdiction[source_3,innode_4] 0
interdiction[source_2,innode_7] 0
interdiction[sink_3,innode_8] 0
WCcheckFlow[source_1,sink_3] 39
WCcheckFlow[innode_1,sink_16] 1
WCcheckFlow[innode_6,sink_13] 13
WCcheckFlow[sink_13,sink_14] 12
WCcheckFlow[sink_14,sink_10] 11
WCcheckFlow[sink_25,sink_26] 15
WCcheckFlow[sink_26,sink_9] 12
WCcheckFlow[sink_9,sink_18] 11
WCcheckFlow[sink_26,sink_4] 2
WCcheckFlow[sink_4,sink_20] 1
WCcheckFlow[sink_18,sink_6] 10
WCcheckFlow[sink_25,innode_8] -36
WCcheckFlow[sink_6,sink_7] 7
WCcheckFlow[sink_6,sink_22] 2
WCcheckFlow[sink_7,sink_24] 3
WCcheckFlow[sink_22,sink_1] 1
WCcheckFlow[sink_24,sink_21] 2
WCcheckFlow[sink_21,sink_12] 1
WCcheckFlow[sink_7,sink_5] 3
WCcheckFlow[sink_5,sink_17] 2
WCcheckFlow[sink_17,sink_4] 0
WCcheckFlow[sink_17,sink_8] 1
WCcheckFlow[sink_3,sink_23] 1
WCcheckFlow[sink_8,sink_20] 0
WCcheckFlow[sink_25,sink_20] 0
WCcheckFlow[sink_25,sink_15] 6
WCcheckFlow[sink_15,sink_29] 5
WCcheckFlow[sink_29,sink_28] 1
WCcheckFlow[sink_29,sink_2] 1
WCcheckFlow[sink_2,sink_15] 0
WCcheckFlow[sink_29,innode_7] 2
WCcheckFlow[innode_4,sink_19] -2
WCcheckFlow[sink_19,innode_3] -5
WCcheckFlow[innode_4,innode_5] 0
WCcheckFlow[sink_27,innode_5] 1
WCcheckFlow[sink_27,sink_19] -2
WCcheckFlow[sink_10,sink_11] 3
WCcheckFlow[sink_10,innode_2] 1
WCcheckFlow[sink_10,innode_3] 6
WCcheckFlow[innode_6,sink_25] -14
WCcheckFlow[sink_11,innode_1] 2
WCcheckFlow[sink_19,innode_2] 0
WCcheckFlow[source_3,innode_4] -1
WCcheckFlow[source_2,innode_7] -1
WCcheckFlow[sink_3,innode_8] 37
